5	10	20	17	7	13	11	16	1	14	19	20	9	18	11	3	5	16	6	7	18	8	20	10	5	2	7	3	19	7	3	5	18	8	20	13	1	18	12	16	16	15	12	1	13	6	7	8	14	10
18	1	10	4	13	7	15	16	8	20	12	8	8	17	19	17	11	6	18	1	18	7	19	16	11	8	10	20	4	8	11	10	5	5	6	5	20	20	18	10	15	13	19	11	19	5	14	5	10	6
10	18	18	16	17	5	2	18	18	13	17	11	1	3	17	7	20	9	11	3	4	9	4	4	19	6	4	14	14	1	12	1	10	17	12	1	8	11	10	6	12	2	6	5	1	6	3	12	6	5
17	3	8	7	18	5	16	2	3	2	20	17	17	4	5	6	8	2	10	7	5	9	16	13	3	5	14	2	10	14	9	6	19	12	5	18	20	2	17	1	10	8	15	12	1	5	13	15	10	4
